results_rootrelaxation/bin012_050_037.srr.sol
solution status: optimal solution found
objective value:                                    0
_var169_                            0.194645359061962 	(obj:0)
_var194_                           0.0510140725113043 	(obj:0)
_var250_                            0.112294024140093 	(obj:0)
_var501_                            0.258759967622497 	(obj:0)
_var522_                           0.0041577135501151 	(obj:0)
_var558_                            0.180264026188068 	(obj:0)
_var566_                             0.27791015567858 	(obj:0)
_var582_                            0.296611739770693 	(obj:0)
_var621_                           0.0233956719469757 	(obj:0)
_var681_                            0.213733782804166 	(obj:0)
_var698_                            0.197330481339051 	(obj:0)
_var701_                            0.260967229155357 	(obj:0)
_var708_                            0.247782173518712 	(obj:0)
_var716_                             0.23453535356819 	(obj:0)
_var717_                            0.355980248422574 	(obj:0)
_var726_                            0.300870226675032 	(obj:0)
_var730_                            0.161968786266217 	(obj:0)
_var731_                           0.0105486946599871 	(obj:0)
_var732_                            0.196813611554479 	(obj:0)
_var736_                            0.142945377591255 	(obj:0)
_var742_                            0.150834956001053 	(obj:0)
_var746_                            0.419564984185086 	(obj:0)
_var748_                            0.338761007863572 	(obj:0)
_var749_                            0.141050188381158 	(obj:0)
_var753_                            0.042025739465118 	(obj:0)
_var755_                            0.472701798641836 	(obj:0)
_var758_                            0.104869303461077 	(obj:0)
_var760_                            0.253890339086082 	(obj:0)
_var761_                             0.14570201644231 	(obj:0)
_var765_                            0.488780024770741 	(obj:0)
_var770_                           0.0227942825749864 	(obj:0)
_var771_                           0.0951625539218703 	(obj:0)
_var772_                            0.172803547222066 	(obj:0)
_var775_                            0.203633692108145 	(obj:0)
_var777_                            0.281638769784898 	(obj:0)
_var778_                            0.192714411564882 	(obj:0)
_var782_                            0.157586770734119 	(obj:0)
_var783_                             0.15154687098735 	(obj:0)
_var785_                            0.119842273446872 	(obj:0)
_var791_                            0.147990546809223 	(obj:0)
_var792_                            0.155740342824448 	(obj:0)
_var801_                             0.26157837078743 	(obj:0)
_var802_                           0.0938492495635861 	(obj:0)
_var805_                           0.0932446094382391 	(obj:0)
_var806_                            0.453470341751701 	(obj:0)
_var807_                            0.159820038293874 	(obj:0)
_var808_                           0.0399029975196739 	(obj:0)
_var810_                            0.194645359061962 	(obj:0)
_var811_                           0.0783756635600294 	(obj:0)
_var814_                            0.138209029942691 	(obj:0)
_var815_                           0.0661073203714949 	(obj:0)
_var817_                            0.325393910038652 	(obj:0)
_var818_                            0.115941369412363 	(obj:0)
_var822_                            0.175384645391571 	(obj:0)
_var823_                            0.247782173518712 	(obj:0)
_var825_                           0.0436251101192709 	(obj:0)
_var826_                           0.0516674739370847 	(obj:0)
_var827_                           0.0807227074874605 	(obj:0)
_var828_                            0.221135748209646 	(obj:0)
_var830_                           0.0502598977312982 	(obj:0)
_var831_                           0.0556463960522838 	(obj:0)
_var834_                           0.0710744715087724 	(obj:0)
