results_rootrelaxation/bin012_050_037.srr.log
SCIP version 8.0.3.5 [precision: 8 byte] [memory: block] [mode: optimized] [LP solver: Soplex 6.0.1.3] [GitHash: 438792519e]
Copyright (c) 2002-2023 Zuse Institute Berlin (ZIB)

External libraries: 
  Readline 8.1         GNU library for command line editing (gnu.org/s/readline)
  Soplex 6.0.1.3       Linear Programming Solver developed at Zuse Institute Berlin (soplex.zib.de) [GitHash: 713be0fe]
  CppAD 20180000.0     Algorithmic Differentiation of C++ algorithms developed by B. Bell (github.com/coin-or/CppAD)
  ZLIB 1.2.11          General purpose compression library by J. Gailly and M. Adler (zlib.net)
  bliss 0.77           Computing Graph Automorphism Groups by T. Junttila and P. Kaski (www.tcs.hut.fi/Software/bliss/)

user parameter file <scip.set> not found - using default parameters

srr/relaxation = TRUE

read problem <instances/bin012_050_037.srr>
============

Original problem: 
original problem has 0 variables (0 bin, 0 int, 0 impl, 0 cont) and 77 constraints

presolving:
presolving (1 rounds: 1 fast, 1 medium, 1 exhaustive):
 0 deleted vars, 0 deleted constraints, 0 added constraints, 0 tightened bounds, 0 added holes, 0 changed sides, 0 changed coefficients
 0 implications, 0 cliques
presolved problem has 0 variables (0 bin, 0 int, 0 impl, 0 cont) and 77 constraints
     77 constraints of type <linear>
Presolving Time: 0.00

 time | node  | left  |LP iter|LP it/n|mem/heur|mdpt |vars |cons |rows |cuts |sepa|confs|strbr|  dualbound   | primalbound  |  gap   | compl. 
  0.0s|     1 |     0 |     1 |     - |   710k |   0 |   1 |  77 |  77 |   0 |  0 |   0 |   0 |      --      |      --      |    Inf | unknown
r 0.0s|     1 |     0 |   935 |     - |simplero|   0 | 694 |  77 |  77 |   0 |  0 |   0 |   0 |      --      | 1.296349e+01 |    Inf | unknown
r 0.0s|     1 |     0 |   967 |     - |simplero|   0 | 705 |  77 |  77 |   0 |  0 |   0 |   0 |      --      | 1.171087e+01 |    Inf | unknown
r 0.0s|     1 |     0 |  1010 |     - |simplero|   0 | 716 |  77 |  77 |   0 |  0 |   0 |   0 |      --      | 1.009926e+01 |    Inf | unknown
r 0.1s|     1 |     0 |  1073 |     - |simplero|   0 | 727 |  77 |  77 |   0 |  0 |   0 |   0 |      --      | 8.022474e+00 |    Inf | unknown
r 0.1s|     1 |     0 |  1144 |     - |simplero|   0 | 738 |  77 |  77 |   0 |  0 |   0 |   0 |      --      | 6.298202e+00 |    Inf | unknown
r 0.1s|     1 |     0 |  1173 |     - |simplero|   0 | 749 |  77 |  77 |   0 |  0 |   0 |   0 |      --      | 5.194455e+00 |    Inf | unknown
r 0.1s|     1 |     0 |  1178 |     - |simplero|   0 | 749 |  77 |  77 |   0 |  0 |   0 |   0 |      --      | 5.186648e+00 |    Inf | unknown
r 0.1s|     1 |     0 |  1222 |     - |simplero|   0 | 760 |  77 |  77 |   0 |  0 |   0 |   0 |      --      | 4.238933e+00 |    Inf | unknown
r 0.1s|     1 |     0 |  1238 |     - |simplero|   0 | 760 |  77 |  77 |   0 |  0 |   0 |   0 |      --      | 4.148624e+00 |    Inf | unknown
r 0.1s|     1 |     0 |  1244 |     - |simplero|   0 | 760 |  77 |  77 |   0 |  0 |   0 |   0 |      --      | 4.129723e+00 |    Inf | unknown
r 0.1s|     1 |     0 |  1312 |     - |simplero|   0 | 771 |  77 |  77 |   0 |  0 |   0 |   0 |      --      | 2.893550e+00 |    Inf | unknown
r 0.1s|     1 |     0 |  1346 |     - |simplero|   0 | 782 |  77 |  77 |   0 |  0 |   0 |   0 |      --      | 2.226586e+00 |    Inf | unknown
r 0.1s|     1 |     0 |  1367 |     - |simplero|   0 | 782 |  77 |  77 |   0 |  0 |   0 |   0 |      --      | 2.159469e+00 |    Inf | unknown
r 0.1s|     1 |     0 |  1372 |     - |simplero|   0 | 782 |  77 |  77 |   0 |  0 |   0 |   0 |      --      | 2.156818e+00 |    Inf | unknown
 time | node  | left  |LP iter|LP it/n|mem/heur|mdpt |vars |cons |rows |cuts |sepa|confs|strbr|  dualbound   | primalbound  |  gap   | compl. 
r 0.1s|     1 |     0 |  1395 |     - |simplero|   0 | 793 |  77 |  77 |   0 |  0 |   0 |   0 |      --      | 1.695456e+00 |    Inf | unknown
r 0.1s|     1 |     0 |  1408 |     - |simplero|   0 | 793 |  77 |  77 |   0 |  0 |   0 |   0 |      --      | 1.618210e+00 |    Inf | unknown
r 0.1s|     1 |     0 |  1411 |     - |simplero|   0 | 793 |  77 |  77 |   0 |  0 |   0 |   0 |      --      | 1.617123e+00 |    Inf | unknown
r 0.1s|     1 |     0 |  1439 |     - |simplero|   0 | 804 |  77 |  77 |   0 |  0 |   0 |   0 |      --      | 1.277541e+00 |    Inf | unknown
r 0.1s|     1 |     0 |  1463 |     - |simplero|   0 | 804 |  77 |  77 |   0 |  0 |   0 |   0 |      --      | 1.142292e+00 |    Inf | unknown
r 0.1s|     1 |     0 |  1471 |     - |simplero|   0 | 804 |  77 |  77 |   0 |  0 |   0 |   0 |      --      | 1.135823e+00 |    Inf | unknown
r 0.1s|     1 |     0 |  1511 |     - |simplero|   0 | 815 |  77 |  77 |   0 |  0 |   0 |   0 |      --      | 6.395390e-01 |    Inf | unknown
r 0.1s|     1 |     0 |  1533 |     - |simplero|   0 | 815 |  77 |  77 |   0 |  0 |   0 |   0 |      --      | 5.115692e-01 |    Inf | unknown
r 0.1s|     1 |     0 |  1578 |     - |simplero|   0 | 826 |  77 |  77 |   0 |  0 |   0 |   0 |      --      | 1.926272e-01 |    Inf | unknown
r 0.1s|     1 |     0 |  1594 |     - |simplero|   0 | 837 |  77 |  77 |   0 |  0 |   0 |   0 |      --      | 0.000000e+00 |    Inf | unknown
  0.1s|     1 |     0 |  1594 |     - |  4215k |   0 | 837 |  77 |  77 |   0 |  0 |   0 |   0 | 0.000000e+00 | 0.000000e+00 |   0.00%| unknown
  0.1s|     1 |     0 |  1594 |     - |  4215k |   0 | 837 |  77 |  77 |   0 |  0 |   0 |   0 | 0.000000e+00 | 0.000000e+00 |   0.00%| unknown

SCIP Status        : problem is solved [optimal solution found]
Solving Time (sec) : 0.09
Solving Nodes      : 1
Primal Bound       : +0.00000000000000e+00 (24 solutions)
Dual Bound         : +0.00000000000000e+00
Gap                : 0.00 %

written transformed problem to file <results_rootrelaxation/bin012_050_037.srr.lp>
written transformed problem to file <results_rootrelaxation/bin012_050_037.srr.cip>


SCIP version 8.0.3.5 [precision: 8 byte] [memory: block] [mode: optimized] [LP solver: Soplex 6.0.1.3] [GitHash: 438792519e]
Copyright (c) 2002-2023 Zuse Institute Berlin (ZIB)

External libraries: 
  Readline 8.1         GNU library for command line editing (gnu.org/s/readline)
  Soplex 6.0.1.3       Linear Programming Solver developed at Zuse Institute Berlin (soplex.zib.de) [GitHash: 713be0fe]
  CppAD 20180000.0     Algorithmic Differentiation of C++ algorithms developed by B. Bell (github.com/coin-or/CppAD)
  ZLIB 1.2.11          General purpose compression library by J. Gailly and M. Adler (zlib.net)
  bliss 0.77           Computing Graph Automorphism Groups by T. Junttila and P. Kaski (www.tcs.hut.fi/Software/bliss/)

user parameter file <scip.set> not found - using default parameters

srr/relaxation = TRUE

read problem <instances/bin012_050_037.srr>
============

Original problem: 
original problem has 0 variables (0 bin, 0 int, 0 impl, 0 cont) and 77 constraints

presolving:
presolving (1 rounds: 1 fast, 1 medium, 1 exhaustive):
 0 deleted vars, 0 deleted constraints, 0 added constraints, 0 tightened bounds, 0 added holes, 0 changed sides, 0 changed coefficients
 0 implications, 0 cliques
presolved problem has 0 variables (0 bin, 0 int, 0 impl, 0 cont) and 77 constraints
     77 constraints of type <linear>
Presolving Time: 0.00

 time | node  | left  |LP iter|LP it/n|mem/heur|mdpt |vars |cons |rows |cuts |sepa|confs|strbr|  dualbound   | primalbound  |  gap   | compl. 
  0.0s|     1 |     0 |     1 |     - |   710k |   0 |   1 |  77 |  77 |   0 |  0 |   0 |   0 |      --      |      --      |    Inf | unknown
r 0.0s|     1 |     0 |   935 |     - |simplero|   0 | 694 |  77 |  77 |   0 |  0 |   0 |   0 |      --      | 1.296349e+01 |    Inf | unknown
r 0.0s|     1 |     0 |   967 |     - |simplero|   0 | 705 |  77 |  77 |   0 |  0 |   0 |   0 |      --      | 1.171087e+01 |    Inf | unknown
r 0.1s|     1 |     0 |  1010 |     - |simplero|   0 | 716 |  77 |  77 |   0 |  0 |   0 |   0 |      --      | 1.009926e+01 |    Inf | unknown
r 0.1s|     1 |     0 |  1073 |     - |simplero|   0 | 727 |  77 |  77 |   0 |  0 |   0 |   0 |      --      | 8.022474e+00 |    Inf | unknown
r 0.1s|     1 |     0 |  1144 |     - |simplero|   0 | 738 |  77 |  77 |   0 |  0 |   0 |   0 |      --      | 6.298202e+00 |    Inf | unknown
r 0.1s|     1 |     0 |  1173 |     - |simplero|   0 | 749 |  77 |  77 |   0 |  0 |   0 |   0 |      --      | 5.194455e+00 |    Inf | unknown
r 0.1s|     1 |     0 |  1178 |     - |simplero|   0 | 749 |  77 |  77 |   0 |  0 |   0 |   0 |      --      | 5.186648e+00 |    Inf | unknown
r 0.1s|     1 |     0 |  1222 |     - |simplero|   0 | 760 |  77 |  77 |   0 |  0 |   0 |   0 |      --      | 4.238933e+00 |    Inf | unknown
r 0.1s|     1 |     0 |  1238 |     - |simplero|   0 | 760 |  77 |  77 |   0 |  0 |   0 |   0 |      --      | 4.148624e+00 |    Inf | unknown
r 0.1s|     1 |     0 |  1244 |     - |simplero|   0 | 760 |  77 |  77 |   0 |  0 |   0 |   0 |      --      | 4.129723e+00 |    Inf | unknown
r 0.1s|     1 |     0 |  1312 |     - |simplero|   0 | 771 |  77 |  77 |   0 |  0 |   0 |   0 |      --      | 2.893550e+00 |    Inf | unknown
r 0.1s|     1 |     0 |  1346 |     - |simplero|   0 | 782 |  77 |  77 |   0 |  0 |   0 |   0 |      --      | 2.226586e+00 |    Inf | unknown
r 0.1s|     1 |     0 |  1367 |     - |simplero|   0 | 782 |  77 |  77 |   0 |  0 |   0 |   0 |      --      | 2.159469e+00 |    Inf | unknown
r 0.1s|     1 |     0 |  1372 |     - |simplero|   0 | 782 |  77 |  77 |   0 |  0 |   0 |   0 |      --      | 2.156818e+00 |    Inf | unknown
 time | node  | left  |LP iter|LP it/n|mem/heur|mdpt |vars |cons |rows |cuts |sepa|confs|strbr|  dualbound   | primalbound  |  gap   | compl. 
r 0.1s|     1 |     0 |  1395 |     - |simplero|   0 | 793 |  77 |  77 |   0 |  0 |   0 |   0 |      --      | 1.695456e+00 |    Inf | unknown
r 0.1s|     1 |     0 |  1408 |     - |simplero|   0 | 793 |  77 |  77 |   0 |  0 |   0 |   0 |      --      | 1.618210e+00 |    Inf | unknown
r 0.1s|     1 |     0 |  1411 |     - |simplero|   0 | 793 |  77 |  77 |   0 |  0 |   0 |   0 |      --      | 1.617123e+00 |    Inf | unknown
r 0.1s|     1 |     0 |  1439 |     - |simplero|   0 | 804 |  77 |  77 |   0 |  0 |   0 |   0 |      --      | 1.277541e+00 |    Inf | unknown
r 0.1s|     1 |     0 |  1463 |     - |simplero|   0 | 804 |  77 |  77 |   0 |  0 |   0 |   0 |      --      | 1.142292e+00 |    Inf | unknown
r 0.1s|     1 |     0 |  1471 |     - |simplero|   0 | 804 |  77 |  77 |   0 |  0 |   0 |   0 |      --      | 1.135823e+00 |    Inf | unknown
r 0.1s|     1 |     0 |  1511 |     - |simplero|   0 | 815 |  77 |  77 |   0 |  0 |   0 |   0 |      --      | 6.395390e-01 |    Inf | unknown
r 0.1s|     1 |     0 |  1533 |     - |simplero|   0 | 815 |  77 |  77 |   0 |  0 |   0 |   0 |      --      | 5.115692e-01 |    Inf | unknown
r 0.1s|     1 |     0 |  1578 |     - |simplero|   0 | 826 |  77 |  77 |   0 |  0 |   0 |   0 |      --      | 1.926272e-01 |    Inf | unknown
r 0.1s|     1 |     0 |  1594 |     - |simplero|   0 | 837 |  77 |  77 |   0 |  0 |   0 |   0 |      --      | 0.000000e+00 |    Inf | unknown
  0.1s|     1 |     0 |  1594 |     - |  4215k |   0 | 837 |  77 |  77 |   0 |  0 |   0 |   0 | 0.000000e+00 | 0.000000e+00 |   0.00%| unknown
  0.1s|     1 |     0 |  1594 |     - |  4215k |   0 | 837 |  77 |  77 |   0 |  0 |   0 |   0 | 0.000000e+00 | 0.000000e+00 |   0.00%| unknown

SCIP Status        : problem is solved [optimal solution found]
Solving Time (sec) : 0.08
Solving Nodes      : 1
Primal Bound       : +0.00000000000000e+00 (24 solutions)
Dual Bound         : +0.00000000000000e+00
Gap                : 0.00 %

written transformed problem to file <results_rootrelaxation/bin012_050_037.srr.lp>
written transformed problem to file <results_rootrelaxation/bin012_050_037.srr.cip>

written solution information to file <results_rootrelaxation/bin012_050_037.srr.sol>



